(set-logic QF_LRA)
(declare-fun T1 () Real )
(declare-fun T2 () Real )
(declare-fun T3 () Real )
(declare-fun T4 () Real )
(declare-fun T5 () Real )
(declare-fun T6 () Real )
(declare-fun Z () Real )
(declare-fun k () Real )
(assert (let
(( $goal (>= Z k) ))
(let
((
$phi ( and 
(or ( <= ( + T1 99 ) T2 ) ( <= ( + T2 52 ) T1 ) )
(or ( <= ( + T1 149 )  ( + T2 52 ) ) ( <= ( + T2 92 )( + T1 99 ) ) )
(or ( <= ( + T1 167 )  ( + T2 92 ) ) ( <= ( + T2 176 )( + T1 149 ) ) )
(or ( <= ( + T1 202 )  ( + T2 176 ) ) ( <= ( + T2 252 )( + T1 167 ) ) )
(or ( <= ( + T1 99 ) T3 ) ( <= ( + T3 90 ) T1 ) )
(or ( <= ( + T1 149 )  ( + T3 90 ) ) ( <= ( + T3 154 )( + T1 99 ) ) )
(or ( <= ( + T1 167 )  ( + T3 154 ) ) ( <= ( + T3 237 )( + T1 149 ) ) )
(or ( <= ( + T1 202 )  ( + T3 237 ) ) ( <= ( + T3 312 )( + T1 167 ) ) )
(or ( <= ( + T1 99 ) T4 ) ( <= ( + T4 48 ) T1 ) )
(or ( <= ( + T1 149 )  ( + T4 48 ) ) ( <= ( + T4 112 )( + T1 99 ) ) )
(or ( <= ( + T1 167 )  ( + T4 112 ) ) ( <= ( + T4 209 )( + T1 149 ) ) )
(or ( <= ( + T1 202 )  ( + T4 209 ) ) ( <= ( + T4 232 )( + T1 167 ) ) )
(or ( <= ( + T1 99 ) T5 ) ( <= ( + T5 90 ) T1 ) )
(or ( <= ( + T1 149 )  ( + T5 90 ) ) ( <= ( + T5 190 )( + T1 99 ) ) )
(or ( <= ( + T1 167 )  ( + T5 190 ) ) ( <= ( + T5 286 )( + T1 149 ) ) )
(or ( <= ( + T1 202 )  ( + T5 286 ) ) ( <= ( + T5 334 )( + T1 167 ) ) )
(or ( <= ( + T1 99 ) T6 ) ( <= ( + T6 56 ) T1 ) )
(or ( <= ( + T1 149 )  ( + T6 56 ) ) ( <= ( + T6 88 )( + T1 99 ) ) )
(or ( <= ( + T1 167 )  ( + T6 88 ) ) ( <= ( + T6 115 )( + T1 149 ) ) )
(or ( <= ( + T1 202 )  ( + T6 115 ) ) ( <= ( + T6 118 )( + T1 167 ) ) )
(or ( <= ( + T2 52 ) T3 ) ( <= ( + T3 90 ) T2 ) )
(or ( <= ( + T2 92 )  ( + T3 90 ) ) ( <= ( + T3 154 )( + T2 52 ) ) )
(or ( <= ( + T2 176 )  ( + T3 154 ) ) ( <= ( + T3 237 )( + T2 92 ) ) )
(or ( <= ( + T2 252 )  ( + T3 237 ) ) ( <= ( + T3 312 )( + T2 176 ) ) )
(or ( <= ( + T2 52 ) T4 ) ( <= ( + T4 48 ) T2 ) )
(or ( <= ( + T2 92 )  ( + T4 48 ) ) ( <= ( + T4 112 )( + T2 52 ) ) )
(or ( <= ( + T2 176 )  ( + T4 112 ) ) ( <= ( + T4 209 )( + T2 92 ) ) )
(or ( <= ( + T2 252 )  ( + T4 209 ) ) ( <= ( + T4 232 )( + T2 176 ) ) )
(or ( <= ( + T2 52 ) T5 ) ( <= ( + T5 90 ) T2 ) )
(or ( <= ( + T2 92 )  ( + T5 90 ) ) ( <= ( + T5 190 )( + T2 52 ) ) )
(or ( <= ( + T2 176 )  ( + T5 190 ) ) ( <= ( + T5 286 )( + T2 92 ) ) )
(or ( <= ( + T2 252 )  ( + T5 286 ) ) ( <= ( + T5 334 )( + T2 176 ) ) )
(or ( <= ( + T2 52 ) T6 ) ( <= ( + T6 56 ) T2 ) )
(or ( <= ( + T2 92 )  ( + T6 56 ) ) ( <= ( + T6 88 )( + T2 52 ) ) )
(or ( <= ( + T2 176 )  ( + T6 88 ) ) ( <= ( + T6 115 )( + T2 92 ) ) )
(or ( <= ( + T2 252 )  ( + T6 115 ) ) ( <= ( + T6 118 )( + T2 176 ) ) )
(or ( <= ( + T3 90 ) T4 ) ( <= ( + T4 48 ) T3 ) )
(or ( <= ( + T3 154 )  ( + T4 48 ) ) ( <= ( + T4 112 )( + T3 90 ) ) )
(or ( <= ( + T3 237 )  ( + T4 112 ) ) ( <= ( + T4 209 )( + T3 154 ) ) )
(or ( <= ( + T3 312 )  ( + T4 209 ) ) ( <= ( + T4 232 )( + T3 237 ) ) )
(or ( <= ( + T3 90 ) T5 ) ( <= ( + T5 90 ) T3 ) )
(or ( <= ( + T3 154 )  ( + T5 90 ) ) ( <= ( + T5 190 )( + T3 90 ) ) )
(or ( <= ( + T3 237 )  ( + T5 190 ) ) ( <= ( + T5 286 )( + T3 154 ) ) )
(or ( <= ( + T3 312 )  ( + T5 286 ) ) ( <= ( + T5 334 )( + T3 237 ) ) )
(or ( <= ( + T3 90 ) T6 ) ( <= ( + T6 56 ) T3 ) )
(or ( <= ( + T3 154 )  ( + T6 56 ) ) ( <= ( + T6 88 )( + T3 90 ) ) )
(or ( <= ( + T3 237 )  ( + T6 88 ) ) ( <= ( + T6 115 )( + T3 154 ) ) )
(or ( <= ( + T3 312 )  ( + T6 115 ) ) ( <= ( + T6 118 )( + T3 237 ) ) )
(or ( <= ( + T4 48 ) T5 ) ( <= ( + T5 90 ) T4 ) )
(or ( <= ( + T4 112 )  ( + T5 90 ) ) ( <= ( + T5 190 )( + T4 48 ) ) )
(or ( <= ( + T4 209 )  ( + T5 190 ) ) ( <= ( + T5 286 )( + T4 112 ) ) )
(or ( <= ( + T4 232 )  ( + T5 286 ) ) ( <= ( + T5 334 )( + T4 209 ) ) )
(or ( <= ( + T4 48 ) T6 ) ( <= ( + T6 56 ) T4 ) )
(or ( <= ( + T4 112 )  ( + T6 56 ) ) ( <= ( + T6 88 )( + T4 48 ) ) )
(or ( <= ( + T4 209 )  ( + T6 88 ) ) ( <= ( + T6 115 )( + T4 112 ) ) )
(or ( <= ( + T4 232 )  ( + T6 115 ) ) ( <= ( + T6 118 )( + T4 209 ) ) )
(or ( <= ( + T5 90 ) T6 ) ( <= ( + T6 56 ) T5 ) )
(or ( <= ( + T5 190 )  ( + T6 56 ) ) ( <= ( + T6 88 )( + T5 90 ) ) )
(or ( <= ( + T5 286 )  ( + T6 88 ) ) ( <= ( + T6 115 )( + T5 190 ) ) )
(or ( <= ( + T5 334 )  ( + T6 115 ) ) ( <= ( + T6 118 )( + T5 286 ) ) )
( <= ( + T1 202 ) Z)
( <= ( + T2 252 ) Z)
( <= ( + T3 312 ) Z)
( <= ( + T4 232 ) Z)
( <= ( + T5 334 ) Z)
( <= ( + T6 118 ) Z)
( >= T1 0 )
( >= T2 0 )
( >= T3 0 )
( >= T4 0 )
( >= T5 0 )
( >= T6 0 )
) )
)(=> $phi $goal))))